68
1 0 33
2 0 30
2 1 24
3 0 7
3 1 18
3 2 30
4 0 11
4 1 9
4 2 5
4 3 7
5 0 8
5 1 23
5 2 16
5 3 25
5 4 6
6 0 3
6 1 20
6 2 4
6 3 14
6 4 32
6 5 23
7 0 34
7 1 18
7 2 21
7 3 21
7 4 19
7 5 7
7 6 22
8 0 9
8 1 34
8 2 8
8 3 30
8 4 18
8 5 20
8 6 4
8 7 1
9 0 23
9 1 28
9 2 1
9 3 14
9 4 34
9 5 16
9 6 22
9 7 6
9 8 34
10 0 11
10 1 16
10 2 6
10 3 20
10 4 29
10 5 35
10 6 23
10 7 29
10 8 26
10 9 16
11 0 35
11 1 36
11 2 11
11 3 28
11 4 35
11 5 2
11 6 22
11 7 35
11 8 31
11 9 9
11 10 20
12 0 22
12 1 7
12 2 20
12 3 26
12 4 29
12 5 5
12 6 12
12 7 29
12 8 12
12 9 10
12 10 1
12 11 19
13 0 23
13 1 12
13 2 6
13 3 14
13 4 26
13 5 30
13 6 36
13 7 4
13 8 9
13 9 21
13 10 36
13 11 6
13 12 26
14 0 14
14 1 29
14 2 30
14 3 30
14 4 8
14 5 29
14 6 33
14 7 29
14 8 6
14 9 23
14 10 27
14 11 28
14 12 23
14 13 13
15 0 10
15 1 8
15 2 16
15 3 26
15 4 16
15 5 9
15 6 10
15 7 14
15 8 3
15 9 6
15 10 6
15 11 18
15 12 22
15 13 14
15 14 6
16 0 6
16 1 4
16 2 34
16 3 17
16 4 29
16 5 7
16 6 8
16 7 14
16 8 10
16 9 34
16 10 5
16 11 9
16 12 12
16 13 10
16 14 13
16 15 34
17 0 33
17 1 23
17 2 14
17 3 23
17 4 35
17 5 18
17 6 6
17 7 34
17 8 10
17 9 13
17 10 23
17 11 25
17 12 9
17 13 2
17 14 30
17 15 34
17 16 16
18 0 25
18 1 31
18 2 29
18 3 31
18 4 18
18 5 5
18 6 17
18 7 17
18 8 6
18 9 34
18 10 12
18 11 13
18 12 35
18 13 23
18 14 3
18 15 31
18 16 9
18 17 18
19 0 8
19 1 25
19 2 10
19 3 35
19 4 13
19 5 8
19 6 22
19 7 22
19 8 16
19 9 36
19 10 13
19 11 13
19 12 11
19 13 19
19 14 34
19 15 16
19 16 23
19 17 16
19 18 20
20 0 12
20 1 2
20 2 10
20 3 33
20 4 31
20 5 28
20 6 34
20 7 15
20 8 23
20 9 23
20 10 17
20 11 28
20 12 2
20 13 20
20 14 9
20 15 11
20 16 10
20 17 11
20 18 13
20 19 4
21 0 35
21 1 7
21 2 31
21 3 10
21 4 29
21 5 27
21 6 1
21 7 5
21 8 26
21 9 27
21 10 3
21 11 1
21 12 29
21 13 31
21 14 30
21 15 8
21 16 3
21 17 2
21 18 7
21 19 2
21 20 21
22 0 22
22 1 22
22 2 1
22 3 23
22 4 36
22 5 23
22 6 30
22 7 34
22 8 7
22 9 26
22 10 22
22 11 8
22 12 12
22 13 9
22 14 11
22 15 11
22 16 18
22 17 32
22 18 19
22 19 35
22 20 6
22 21 21
23 0 6
23 1 32
23 2 24
23 3 32
23 4 20
23 5 20
23 6 23
23 7 13
23 8 28
23 9 5
23 10 6
23 11 3
23 12 22
23 13 8
23 14 16
23 15 31
23 16 20
23 17 15
23 18 30
23 19 21
23 20 8
23 21 32
23 22 22
24 0 18
24 1 9
24 2 25
24 3 13
24 4 20
24 5 4
24 6 35
24 7 34
24 8 14
24 9 23
24 10 23
24 11 36
24 12 3
24 13 23
24 14 15
24 15 26
24 16 2
24 17 30
24 18 29
24 19 17
24 20 29
24 21 33
24 22 19
24 23 12
25 0 2
25 1 18
25 2 33
25 3 6
25 4 26
25 5 6
25 6 27
25 7 33
25 8 32
25 9 9
25 10 23
25 11 20
25 12 13
25 13 19
25 14 12
25 15 36
25 16 27
25 17 7
25 18 3
25 19 34
25 20 5
25 21 4
25 22 5
25 23 2
25 24 21
26 0 22
26 1 1
26 2 16
26 3 10
26 4 26
26 5 5
26 6 9
26 7 33
26 8 24
26 9 30
26 10 3
26 11 26
26 12 21
26 13 2
26 14 1
26 15 2
26 16 13
26 17 36
26 18 13
26 19 25
26 20 25
26 21 28
26 22 30
26 23 3
26 24 22
26 25 18
27 0 33
27 1 10
27 2 19
27 3 31
27 4 24
27 5 9
27 6 13
27 7 24
27 8 18
27 9 24
27 10 3
27 11 33
27 12 29
27 13 33
27 14 34
27 15 34
27 16 9
27 17 7
27 18 9
27 19 33
27 20 16
27 21 8
27 22 17
27 23 6
27 24 2
27 25 11
27 26 25
28 0 13
28 1 14
28 2 8
28 3 11
28 4 27
28 5 16
28 6 15
28 7 34
28 8 25
28 9 26
28 10 18
28 11 36
28 12 6
28 13 14
28 14 6
28 15 2
28 16 9
28 17 15
28 18 20
28 19 31
28 20 24
28 21 27
28 22 5
28 23 18
28 24 17
28 25 5
28 26 19
28 27 34
29 0 8
29 1 21
29 2 26
29 3 18
29 4 30
29 5 27
29 6 26
29 7 10
29 8 15
29 9 34
29 10 15
29 11 27
29 12 34
29 13 7
29 14 17
29 15 33
29 16 30
29 17 35
29 18 12
29 19 16
29 20 11
29 21 2
29 22 28
29 23 9
29 24 16
29 25 1
29 26 6
29 27 28
29 28 10
30 0 11
30 1 10
30 2 22
30 3 11
30 4 12
30 5 12
30 6 29
30 7 32
30 8 34
30 9 4
30 10 28
30 11 9
30 12 19
30 13 16
30 14 19
30 15 16
30 16 28
30 17 35
30 18 24
30 19 6
30 20 33
30 21 11
30 22 26
30 23 11
30 24 2
30 25 1
30 26 7
30 27 31
30 28 21
30 29 31
31 0 24
31 1 20
31 2 9
31 3 7
31 4 12
31 5 29
31 6 1
31 7 29
31 8 25
31 9 15
31 10 27
31 11 7
31 12 4
31 13 15
31 14 28
31 15 10
31 16 27
31 17 30
31 18 18
31 19 34
31 20 32
31 21 4
31 22 23
31 23 3
31 24 24
31 25 34
31 26 29
31 27 27
31 28 26
31 29 5
31 30 27
32 0 32
32 1 18
32 2 15
32 3 3
32 4 26
32 5 32
32 6 28
32 7 14
32 8 10
32 9 21
32 10 29
32 11 17
32 12 11
32 13 16
32 14 23
32 15 18
32 16 15
32 17 20
32 18 29
32 19 25
32 20 26
32 21 36
32 22 13
32 23 32
32 24 28
32 25 7
32 26 14
32 27 25
32 28 20
32 29 22
32 30 8
32 31 18
33 0 19
33 1 8
33 2 7
33 3 17
33 4 15
33 5 28
33 6 4
33 7 1
33 8 27
33 9 32
33 10 9
33 11 25
33 12 24
33 13 21
33 14 24
33 15 19
33 16 21
33 17 22
33 18 14
33 19 24
33 20 10
33 21 35
33 22 22
33 23 27
33 24 1
33 25 6
33 26 32
33 27 27
33 28 19
33 29 3
33 30 6
33 31 8
33 32 25
34 0 4
34 1 25
34 2 18
34 3 36
34 4 33
34 5 32
34 6 2
34 7 9
34 8 31
34 9 1
34 10 5
34 11 21
34 12 26
34 13 17
34 14 17
34 15 31
34 16 29
34 17 10
34 18 16
34 19 19
34 20 6
34 21 30
34 22 7
34 23 5
34 24 5
34 25 30
34 26 18
34 27 18
34 28 28
34 29 14
34 30 18
34 31 15
34 32 22
34 33 21
35 0 17
35 1 30
35 2 17
35 3 21
35 4 3
35 5 7
35 6 10
35 7 25
35 8 12
35 9 25
35 10 11
35 11 17
35 12 21
35 13 34
35 14 4
35 15 4
35 16 26
35 17 20
35 18 1
35 19 21
35 20 2
35 21 16
35 22 5
35 23 1
35 24 25
35 25 13
35 26 13
35 27 34
35 28 32
35 29 1
35 30 4
35 31 17
35 32 19
35 33 5
35 34 25
36 0 14
36 1 29
36 2 22
36 3 14
36 4 17
36 5 15
36 6 16
36 7 24
36 8 33
36 9 17
36 10 22
36 11 8
36 12 23
36 13 16
36 14 36
36 15 35
36 16 10
36 17 24
36 18 18
36 19 18
36 20 7
36 21 6
36 22 10
36 23 12
36 24 30
36 25 25
36 26 16
36 27 26
36 28 14
36 29 23
36 30 8
36 31 22
36 32 20
36 33 34
36 34 17
36 35 20
37 0 20
37 1 2
37 2 4
37 3 34
37 4 5
37 5 29
37 6 28
37 7 21
37 8 6
37 9 24
37 10 9
37 11 3
37 12 18
37 13 27
37 14 17
37 15 21
37 16 35
37 17 18
37 18 2
37 19 31
37 20 9
37 21 27
37 22 17
37 23 36
37 24 35
37 25 9
37 26 33
37 27 30
37 28 18
37 29 33
37 30 35
37 31 1
37 32 6
37 33 2
37 34 9
37 35 29
37 36 28
38 0 10
38 1 35
38 2 32
38 3 26
38 4 15
38 5 27
38 6 35
38 7 8
38 8 6
38 9 14
38 10 20
38 11 15
38 12 32
38 13 12
38 14 21
38 15 33
38 16 10
38 17 3
38 18 29
38 19 25
38 20 2
38 21 22
38 22 11
38 23 12
38 24 23
38 25 26
38 26 32
38 27 7
38 28 7
38 29 36
38 30 9
38 31 5
38 32 11
38 33 17
38 34 3
38 35 13
38 36 13
38 37 11
39 0 16
39 1 5
39 2 22
39 3 13
39 4 8
39 5 4
39 6 36
39 7 35
39 8 11
39 9 9
39 10 18
39 11 26
39 12 3
39 13 11
39 14 32
39 15 28
39 16 8
39 17 32
39 18 13
39 19 6
39 20 22
39 21 4
39 22 3
39 23 8
39 24 12
39 25 15
39 26 25
39 27 22
39 28 36
39 29 19
39 30 23
39 31 11
39 32 15
39 33 32
39 34 18
39 35 33
39 36 27
39 37 23
39 38 18
40 0 9
40 1 29
40 2 28
40 3 22
40 4 19
40 5 20
40 6 34
40 7 16
40 8 5
40 9 23
40 10 7
40 11 13
40 12 28
40 13 36
40 14 19
40 15 30
40 16 31
40 17 2
40 18 1
40 19 21
40 20 6
40 21 9
40 22 7
40 23 23
40 24 4
40 25 21
40 26 15
40 27 27
40 28 10
40 29 19
40 30 24
40 31 5
40 32 4
40 33 24
40 34 14
40 35 14
40 36 23
40 37 22
40 38 20
40 39 35
41 0 32
41 1 13
41 2 25
41 3 31
41 4 12
41 5 34
41 6 11
41 7 32
41 8 10
41 9 36
41 10 29
41 11 7
41 12 19
41 13 33
41 14 10
41 15 26
41 16 6
41 17 9
41 18 6
41 19 18
41 20 23
41 21 32
41 22 13
41 23 10
41 24 20
41 25 36
41 26 18
41 27 4
41 28 18
41 29 1
41 30 1
41 31 7
41 32 5
41 33 24
41 34 17
41 35 22
41 36 9
41 37 5
41 38 35
41 39 29
41 40 17
42 0 10
42 1 16
42 2 20
42 3 36
42 4 15
42 5 28
42 6 6
42 7 16
42 8 6
42 9 18
42 10 32
42 11 16
42 12 30
42 13 21
42 14 32
42 15 32
42 16 11
42 17 18
42 18 10
42 19 6
42 20 26
42 21 24
42 22 1
42 23 3
42 24 3
42 25 20
42 26 31
42 27 29
42 28 33
42 29 31
42 30 2
42 31 10
42 32 4
42 33 19
42 34 10
42 35 4
42 36 6
42 37 9
42 38 27
42 39 25
42 40 5
42 41 27
43 0 34
43 1 23
43 2 34
43 3 10
43 4 5
43 5 34
43 6 3
43 7 32
43 8 13
43 9 16
43 10 22
43 11 8
43 12 14
43 13 8
43 14 11
43 15 12
43 16 2
43 17 18
43 18 1
43 19 19
43 20 28
43 21 31
43 22 31
43 23 4
43 24 16
43 25 33
43 26 18
43 27 33
43 28 24
43 29 22
43 30 2
43 31 27
43 32 7
43 33 2
43 34 4
43 35 22
43 36 10
43 37 16
43 38 30
43 39 26
43 40 23
43 41 14
43 42 14
44 0 17
44 1 33
44 2 30
44 3 28
44 4 21
44 5 21
44 6 8
44 7 15
44 8 32
44 9 20
44 10 29
44 11 21
44 12 26
44 13 8
44 14 6
44 15 14
44 16 36
44 17 7
44 18 9
44 19 16
44 20 34
44 21 22
44 22 19
44 23 10
44 24 15
44 25 17
44 26 6
44 27 26
44 28 26
44 29 36
44 30 14
44 31 7
44 32 8
44 33 28
44 34 3
44 35 20
44 36 36
44 37 22
44 38 23
44 39 35
44 40 24
44 41 9
44 42 17
44 43 34
45 0 31
45 1 30
45 2 27
45 3 5
45 4 2
45 5 24
45 6 9
45 7 13
45 8 28
45 9 11
45 10 11
45 11 7
45 12 12
45 13 15
45 14 13
45 15 11
45 16 22
45 17 21
45 18 19
45 19 19
45 20 28
45 21 20
45 22 14
45 23 6
45 24 11
45 25 33
45 26 15
45 27 13
45 28 19
45 29 24
45 30 10
45 31 32
45 32 5
45 33 6
45 34 30
45 35 12
45 36 6
45 37 36
45 38 5
45 39 6
45 40 31
45 41 11
45 42 12
45 43 14
45 44 4
46 0 9
46 1 34
46 2 16
46 3 18
46 4 29
46 5 34
46 6 35
46 7 4
46 8 29
46 9 24
46 10 10
46 11 23
46 12 18
46 13 19
46 14 27
46 15 15
46 16 17
46 17 36
46 18 22
46 19 22
46 20 25
46 21 8
46 22 18
46 23 11
46 24 24
46 25 19
46 26 12
46 27 14
46 28 13
46 29 16
46 30 24
46 31 1
46 32 13
46 33 30
46 34 1
46 35 1
46 36 30
46 37 34
46 38 34
46 39 8
46 40 3
46 41 23
46 42 20
46 43 27
46 44 20
46 45 19
47 0 23
47 1 33
47 2 31
47 3 35
47 4 3
47 5 4
47 6 5
47 7 22
47 8 34
47 9 19
47 10 16
47 11 20
47 12 5
47 13 12
47 14 27
47 15 24
47 16 5
47 17 34
47 18 1
47 19 7
47 20 24
47 21 24
47 22 24
47 23 15
47 24 21
47 25 15
47 26 19
47 27 3
47 28 13
47 29 14
47 30 4
47 31 28
47 32 23
47 33 13
47 34 18
47 35 16
47 36 3
47 37 15
47 38 12
47 39 33
47 40 18
47 41 14
47 42 4
47 43 1
47 44 19
47 45 24
47 46 35
48 0 22
48 1 30
48 2 29
48 3 12
48 4 24
48 5 22
48 6 4
48 7 24
48 8 2
48 9 13
48 10 16
48 11 29
48 12 6
48 13 22
48 14 16
48 15 32
48 16 32
48 17 7
48 18 10
48 19 1
48 20 32
48 21 30
48 22 22
48 23 35
48 24 16
48 25 11
48 26 3
48 27 12
48 28 25
48 29 30
48 30 30
48 31 24
48 32 23
48 33 22
48 34 27
48 35 30
48 36 28
48 37 18
48 38 16
48 39 20
48 40 25
48 41 36
48 42 36
48 43 27
48 44 23
48 45 20
48 46 13
48 47 2
49 0 28
49 1 16
49 2 21
49 3 7
49 4 6
49 5 26
49 6 13
49 7 15
49 8 11
49 9 23
49 10 28
49 11 12
49 12 25
49 13 21
49 14 30
49 15 10
49 16 3
49 17 29
49 18 20
49 19 18
49 20 4
49 21 3
49 22 16
49 23 1
49 24 18
49 25 11
49 26 32
49 27 9
49 28 8
49 29 18
49 30 13
49 31 2
49 32 5
49 33 35
49 34 32
49 35 10
49 36 33
49 37 11
49 38 6
49 39 16
49 40 21
49 41 22
49 42 34
49 43 29
49 44 23
49 45 13
49 46 23
49 47 30
49 48 28
50 0 5
50 1 26
50 2 11
50 3 24
50 4 1
50 5 33
50 6 23
50 7 12
50 8 25
50 9 9
50 10 33
50 11 30
50 12 23
50 13 24
50 14 9
50 15 22
50 16 19
50 17 26
50 18 7
50 19 29
50 20 31
50 21 24
50 22 1
50 23 26
50 24 3
50 25 19
50 26 21
50 27 1
50 28 16
50 29 14
50 30 29
50 31 1
50 32 16
50 33 34
50 34 6
50 35 3
50 36 26
50 37 33
50 38 17
50 39 35
50 40 9
50 41 34
50 42 36
50 43 29
50 44 30
50 45 32
50 46 32
50 47 5
50 48 33
50 49 34
51 0 2
51 1 28
51 2 12
51 3 33
51 4 5
51 5 25
51 6 8
51 7 13
51 8 18
51 9 16
51 10 23
51 11 25
51 12 32
51 13 7
51 14 15
51 15 9
51 16 22
51 17 34
51 18 2
51 19 2
51 20 2
51 21 16
51 22 14
51 23 30
51 24 3
51 25 12
51 26 12
51 27 11
51 28 28
51 29 6
51 30 26
51 31 33
51 32 36
51 33 12
51 34 36
51 35 23
51 36 19
51 37 14
51 38 21
51 39 13
51 40 3
51 41 32
51 42 6
51 43 36
51 44 25
51 45 25
51 46 15
51 47 15
51 48 23
51 49 2
51 50 7
52 0 28
52 1 3
52 2 11
52 3 22
52 4 34
52 5 33
52 6 20
52 7 24
52 8 36
52 9 2
52 10 36
52 11 3
52 12 29
52 13 3
52 14 32
52 15 11
52 16 21
52 17 18
52 18 29
52 19 23
52 20 30
52 21 15
52 22 2
52 23 9
52 24 26
52 25 21
52 26 17
52 27 10
52 28 3
52 29 16
52 30 25
52 31 11
52 32 22
52 33 6
52 34 31
52 35 11
52 36 33
52 37 4
52 38 36
52 39 10
52 40 12
52 41 36
52 42 2
52 43 15
52 44 31
52 45 31
52 46 36
52 47 23
52 48 24
52 49 25
52 50 15
52 51 23
53 0 25
53 1 33
53 2 21
53 3 3
53 4 22
53 5 17
53 6 8
53 7 3
53 8 7
53 9 9
53 10 36
53 11 16
53 12 20
53 13 24
53 14 17
53 15 21
53 16 4
53 17 36
53 18 28
53 19 18
53 20 2
53 21 30
53 22 4
53 23 14
53 24 27
53 25 13
53 26 22
53 27 5
53 28 17
53 29 31
53 30 12
53 31 17
53 32 32
53 33 1
53 34 15
53 35 18
53 36 3
53 37 21
53 38 25
53 39 32
53 40 7
53 41 2
53 42 3
53 43 9
53 44 9
53 45 15
53 46 34
53 47 36
53 48 1
53 49 15
53 50 32
53 51 5
53 52 26
54 0 17
54 1 22
54 2 17
54 3 28
54 4 29
54 5 15
54 6 15
54 7 9
54 8 23
54 9 26
54 10 11
54 11 20
54 12 4
54 13 33
54 14 27
54 15 13
54 16 7
54 17 32
54 18 22
54 19 11
54 20 16
54 21 17
54 22 28
54 23 8
54 24 21
54 25 21
54 26 13
54 27 19
54 28 15
54 29 19
54 30 12
54 31 32
54 32 12
54 33 1
54 34 32
54 35 7
54 36 10
54 37 2
54 38 14
54 39 18
54 40 13
54 41 1
54 42 18
54 43 12
54 44 6
54 45 13
54 46 12
54 47 33
54 48 19
54 49 17
54 50 25
54 51 32
54 52 10
54 53 12
55 0 8
55 1 14
55 2 13
55 3 27
55 4 17
55 5 4
55 6 5
55 7 10
55 8 15
55 9 16
55 10 2
55 11 36
55 12 11
55 13 16
55 14 24
55 15 17
55 16 1
55 17 35
55 18 30
55 19 8
55 20 11
55 21 23
55 22 23
55 23 2
55 24 29
55 25 22
55 26 15
55 27 32
55 28 35
55 29 20
55 30 23
55 31 24
55 32 29
55 33 1
55 34 28
55 35 31
55 36 34
55 37 9
55 38 18
55 39 18
55 40 21
55 41 30
55 42 13
55 43 25
55 44 22
55 45 19
55 46 14
55 47 6
55 48 7
55 49 7
55 50 2
55 51 4
55 52 24
55 53 1
55 54 6
56 0 26
56 1 17
56 2 3
56 3 4
56 4 30
56 5 14
56 6 25
56 7 16
56 8 27
56 9 15
56 10 13
56 11 22
56 12 33
56 13 1
56 14 19
56 15 3
56 16 21
56 17 25
56 18 15
56 19 28
56 20 3
56 21 29
56 22 5
56 23 5
56 24 15
56 25 10
56 26 19
56 27 4
56 28 21
56 29 36
56 30 13
56 31 14
56 32 24
56 33 8
56 34 33
56 35 4
56 36 15
56 37 31
56 38 19
56 39 13
56 40 9
56 41 18
56 42 22
56 43 32
56 44 23
56 45 11
56 46 6
56 47 28
56 48 5
56 49 4
56 50 24
56 51 16
56 52 7
56 53 22
56 54 5
56 55 24
57 0 24
57 1 7
57 2 23
57 3 30
57 4 1
57 5 36
57 6 3
57 7 26
57 8 7
57 9 11
57 10 4
57 11 33
57 12 16
57 13 34
57 14 18
57 15 17
57 16 24
57 17 28
57 18 13
57 19 34
57 20 27
57 21 17
57 22 2
57 23 26
57 24 15
57 25 16
57 26 20
57 27 33
57 28 17
57 29 15
57 30 25
57 31 23
57 32 26
57 33 36
57 34 25
57 35 25
57 36 16
57 37 15
57 38 24
57 39 5
57 40 28
57 41 4
57 42 4
57 43 29
57 44 26
57 45 26
57 46 19
57 47 6
57 48 18
57 49 4
57 50 31
57 51 2
57 52 14
57 53 8
57 54 6
57 55 34
57 56 18
58 0 10
58 1 24
58 2 32
58 3 33
58 4 34
58 5 20
58 6 11
58 7 4
58 8 25
58 9 21
58 10 17
58 11 28
58 12 26
58 13 25
58 14 35
58 15 16
58 16 34
58 17 10
58 18 21
58 19 13
58 20 19
58 21 14
58 22 29
58 23 19
58 24 7
58 25 12
58 26 9
58 27 6
58 28 33
58 29 30
58 30 8
58 31 22
58 32 2
58 33 25
58 34 36
58 35 19
58 36 4
58 37 15
58 38 15
58 39 10
58 40 4
58 41 11
58 42 5
58 43 9
58 44 5
58 45 10
58 46 23
58 47 34
58 48 28
58 49 6
58 50 17
58 51 36
58 52 29
58 53 27
58 54 23
58 55 8
58 56 11
58 57 6
59 0 4
59 1 25
59 2 16
59 3 35
59 4 31
59 5 14
59 6 30
59 7 20
59 8 25
59 9 17
59 10 26
59 11 8
59 12 30
59 13 32
59 14 20
59 15 9
59 16 20
59 17 21
59 18 6
59 19 10
59 20 18
59 21 4
59 22 6
59 23 23
59 24 27
59 25 6
59 26 25
59 27 28
59 28 16
59 29 30
59 30 9
59 31 7
59 32 19
59 33 25
59 34 33
59 35 16
59 36 15
59 37 5
59 38 35
59 39 25
59 40 29
59 41 14
59 42 12
59 43 9
59 44 18
59 45 7
59 46 24
59 47 14
59 48 13
59 49 13
59 50 19
59 51 20
59 52 19
59 53 4
59 54 29
59 55 12
59 56 22
59 57 17
59 58 3
60 0 4
60 1 15
60 2 29
60 3 36
60 4 3
60 5 18
60 6 12
60 7 20
60 8 10
60 9 20
60 10 9
60 11 2
60 12 18
60 13 22
60 14 26
60 15 36
60 16 24
60 17 2
60 18 7
60 19 6
60 20 21
60 21 21
60 22 5
60 23 30
60 24 12
60 25 9
60 26 26
60 27 19
60 28 31
60 29 35
60 30 34
60 31 7
60 32 13
60 33 33
60 34 3
60 35 18
60 36 21
60 37 31
60 38 18
60 39 13
60 40 32
60 41 28
60 42 8
60 43 19
60 44 14
60 45 12
60 46 33
60 47 2
60 48 21
60 49 27
60 50 36
60 51 26
60 52 35
60 53 23
60 54 35
60 55 17
60 56 15
60 57 14
60 58 24
60 59 33
61 0 3
61 1 7
61 2 12
61 3 14
61 4 11
61 5 8
61 6 9
61 7 16
61 8 25
61 9 7
61 10 4
61 11 2
61 12 21
61 13 9
61 14 9
61 15 22
61 16 8
61 17 4
61 18 29
61 19 32
61 20 16
61 21 3
61 22 1
61 23 21
61 24 2
61 25 32
61 26 18
61 27 11
61 28 20
61 29 24
61 30 28
61 31 7
61 32 15
61 33 31
61 34 11
61 35 36
61 36 5
61 37 12
61 38 33
61 39 7
61 40 3
61 41 17
61 42 13
61 43 22
61 44 20
61 45 18
61 46 8
61 47 35
61 48 18
61 49 28
61 50 28
61 51 28
61 52 13
61 53 28
61 54 16
61 55 18
61 56 7
61 57 22
61 58 9
61 59 20
61 60 21
62 0 25
62 1 15
62 2 1
62 3 4
62 4 22
62 5 30
62 6 7
62 7 30
62 8 28
62 9 1
62 10 10
62 11 10
62 12 32
62 13 36
62 14 11
62 15 14
62 16 11
62 17 8
62 18 23
62 19 29
62 20 17
62 21 4
62 22 21
62 23 7
62 24 13
62 25 8
62 26 14
62 27 27
62 28 24
62 29 1
62 30 14
62 31 29
62 32 21
62 33 25
62 34 5
62 35 17
62 36 33
62 37 13
62 38 17
62 39 12
62 40 12
62 41 1
62 42 17
62 43 1
62 44 23
62 45 25
62 46 13
62 47 8
62 48 14
62 49 25
62 50 23
62 51 30
62 52 22
62 53 10
62 54 20
62 55 2
62 56 2
62 57 22
62 58 7
62 59 13
62 60 11
62 61 4
63 0 35
63 1 11
63 2 31
63 3 24
63 4 11
63 5 9
63 6 30
63 7 7
63 8 29
63 9 34
63 10 32
63 11 8
63 12 14
63 13 19
63 14 28
63 15 5
63 16 23
63 17 3
63 18 10
63 19 26
63 20 29
63 21 32
63 22 21
63 23 8
63 24 6
63 25 17
63 26 19
63 27 13
63 28 25
63 29 11
63 30 35
63 31 20
63 32 36
63 33 4
63 34 8
63 35 29
63 36 34
63 37 32
63 38 27
63 39 25
63 40 5
63 41 18
63 42 4
63 43 4
63 44 13
63 45 25
63 46 30
63 47 19
63 48 25
63 49 4
63 50 36
63 51 14
63 52 23
63 53 2
63 54 20
63 55 21
63 56 32
63 57 26
63 58 28
63 59 33
63 60 7
63 61 27
63 62 2
64 0 16
64 1 22
64 2 21
64 3 9
64 4 4
64 5 3
64 6 25
64 7 9
64 8 22
64 9 12
64 10 26
64 11 14
64 12 18
64 13 3
64 14 17
64 15 27
64 16 26
64 17 8
64 18 34
64 19 32
64 20 35
64 21 3
64 22 20
64 23 7
64 24 2
64 25 31
64 26 36
64 27 24
64 28 32
64 29 12
64 30 1
64 31 25
64 32 8
64 33 5
64 34 23
64 35 10
64 36 17
64 37 34
64 38 9
64 39 31
64 40 13
64 41 30
64 42 16
64 43 15
64 44 35
64 45 21
64 46 5
64 47 21
64 48 20
64 49 4
64 50 30
64 51 17
64 52 10
64 53 7
64 54 32
64 55 19
64 56 21
64 57 29
64 58 31
64 59 35
64 60 4
64 61 32
64 62 31
64 63 21
65 0 34
65 1 34
65 2 1
65 3 4
65 4 33
65 5 33
65 6 26
65 7 29
65 8 11
65 9 21
65 10 35
65 11 5
65 12 2
65 13 32
65 14 18
65 15 10
65 16 5
65 17 2
65 18 5
65 19 3
65 20 32
65 21 2
65 22 11
65 23 25
65 24 26
65 25 28
65 26 15
65 27 1
65 28 4
65 29 20
65 30 28
65 31 24
65 32 21
65 33 2
65 34 25
65 35 30
65 36 32
65 37 7
65 38 33
65 39 28
65 40 1
65 41 23
65 42 10
65 43 17
65 44 19
65 45 30
65 46 10
65 47 19
65 48 2
65 49 18
65 50 15
65 51 26
65 52 16
65 53 15
65 54 35
65 55 25
65 56 32
65 57 33
65 58 21
65 59 18
65 60 8
65 61 27
65 62 8
65 63 36
65 64 9
66 0 4
66 1 33
66 2 23
66 3 22
66 4 21
66 5 32
66 6 30
66 7 19
66 8 5
66 9 12
66 10 4
66 11 24
66 12 28
66 13 11
66 14 16
66 15 30
66 16 6
66 17 28
66 18 32
66 19 1
66 20 23
66 21 8
66 22 9
66 23 23
66 24 7
66 25 16
66 26 9
66 27 2
66 28 11
66 29 35
66 30 18
66 31 21
66 32 2
66 33 27
66 34 16
66 35 9
66 36 14
66 37 33
66 38 36
66 39 26
66 40 34
66 41 13
66 42 7
66 43 23
66 44 18
66 45 31
66 46 15
66 47 35
66 48 4
66 49 9
66 50 9
66 51 10
66 52 13
66 53 34
66 54 18
66 55 32
66 56 10
66 57 18
66 58 36
66 59 21
66 60 13
66 61 15
66 62 26
66 63 31
66 64 32
66 65 7
67 0 33
67 1 10
67 2 1
67 3 36
67 4 8
67 5 18
67 6 15
67 7 7
67 8 9
67 9 24
67 10 34
67 11 34
67 12 33
67 13 15
67 14 13
67 15 32
67 16 20
67 17 26
67 18 10
67 19 27
67 20 29
67 21 13
67 22 10
67 23 31
67 24 7
67 25 22
67 26 2
67 27 26
67 28 24
67 29 17
67 30 22
67 31 17
67 32 1
67 33 24
67 34 35
67 35 36
67 36 1
67 37 4
67 38 11
67 39 14
67 40 33
67 41 13
67 42 34
67 43 19
67 44 5
67 45 29
67 46 24
67 47 8
67 48 10
67 49 8
67 50 1
67 51 13
67 52 20
67 53 25
67 54 18
67 55 26
67 56 30
67 57 31
67 58 14
67 59 8
67 60 20
67 61 3
67 62 26
67 63 15
67 64 36
67 65 12
67 66 16
